VER
1

OBJSENSE
MAX

PSDVAR
1
10

CON
10 1
L= 10

OBJFCOORD
10
0 0 0 -1
0 1 1 -1
0 2 2 -1
0 3 3 -1
0 4 4 -1
0 5 5 -1
0 6 6 -1
0 7 7 -1
0 8 8 -1
0 9 9 -1

FCOORD
418
0 0 0 0 1
0 0 1 1 1
1 0 0 0 4
1 0 1 0 -1
1 0 2 2 1
1 0 2 1 5
1 0 3 3 1
1 0 3 0 3
1 0 3 1 -5
1 0 4 0 2
1 0 4 4 1
1 0 5 1 -3
1 0 5 0 5
1 0 6 0 -3
1 0 6 1 -5
1 0 7 0 -1
1 0 7 1 -4
1 0 8 0 1
1 0 8 1 3
1 0 9 1 3
1 0 9 0 2
2 0 0 0 -2
2 0 1 1 -5
2 0 1 0 4
2 0 2 1 -5
2 0 2 2 3
2 0 2 0 -1
2 0 3 0 4
2 0 3 2 -1
2 0 3 1 -5
2 0 4 4 -4
2 0 4 0 1
2 0 4 3 3
2 0 4 2 3
2 0 5 4 5
2 0 5 0 1
2 0 5 3 -5
2 0 5 5 1
2 0 5 1 -5
2 0 6 2 5
2 0 6 3 -4
2 0 6 6 1
2 0 6 1 3
2 0 6 4 -4
2 0 6 0 4
2 0 7 4 2
2 0 7 3 5
2 0 7 2 4
2 0 7 0 -3
2 0 7 1 1
2 0 8 1 5
2 0 8 3 -3
2 0 8 0 3
2 0 8 4 -4
2 0 8 2 -1
2 0 9 2 -4
2 0 9 0 -4
2 0 9 1 3
2 0 9 4 4
2 0 9 3 -3
3 0 0 0 -1
3 0 1 0 2
3 0 1 1 3
3 0 2 1 5
3 0 2 2 4
3 0 2 0 -3
3 0 3 3 4
3 0 3 0 4
3 0 3 2 -4
3 0 3 1 -2
3 0 4 2 -1
3 0 4 1 2
3 0 4 0 -5
3 0 4 4 -4
3 0 4 3 -5
3 0 5 0 2
3 0 5 3 3
3 0 5 5 -5
3 0 5 1 4
3 0 5 2 5
3 0 5 4 -1
3 0 6 5 2
3 0 6 4 4
3 0 6 6 -5
3 0 6 1 4
3 0 6 3 5
3 0 6 0 -1
3 0 7 3 3
3 0 7 5 -3
3 0 7 6 1
3 0 7 7 2
3 0 7 0 1
3 0 7 4 -2
3 0 7 2 2
3 0 7 1 -5
3 0 8 1 -5
3 0 8 4 -2
3 0 8 0 -4
3 0 8 5 -3
3 0 8 2 -2
3 0 8 3 -2
3 0 8 6 -4
3 0 8 8 2
3 0 8 7 -4
3 0 9 7 -1
3 0 9 0 -3
3 0 9 8 -1
3 0 9 9 -5
3 0 9 2 2
3 0 9 6 1
3 0 9 3 3
3 0 9 1 -4
3 0 9 4 -4
4 0 1 1 -4
4 0 1 0 2
4 0 2 2 -3
4 0 2 1 5
4 0 3 1 -2
4 0 3 3 -1
4 0 3 0 5
4 0 3 2 4
4 0 4 1 3
4 0 4 0 1
4 0 4 4 1
4 0 4 2 -1
4 0 4 3 1
4 0 5 5 1
4 0 5 0 4
4 0 5 4 -2
4 0 5 2 5
4 0 5 3 -1
4 0 5 1 2
4 0 6 5 -5
4 0 6 0 -4
4 0 6 1 4
4 0 6 2 2
4 0 6 6 -4
4 0 6 3 -3
4 0 7 3 4
4 0 7 6 -4
4 0 7 5 5
4 0 7 1 1
4 0 7 7 -5
4 0 7 4 4
4 0 7 0 -4
4 0 7 2 1
4 0 8 2 -4
4 0 8 0 3
4 0 8 4 -2
4 0 8 5 2
4 0 8 8 5
4 0 8 7 3
4 0 8 3 1
4 0 8 6 5
4 0 8 1 3
4 0 9 6 2
4 0 9 7 3
4 0 9 3 -5
4 0 9 8 2
4 0 9 9 -4
4 0 9 5 5
4 0 9 1 -2
4 0 9 2 5
4 0 9 4 4
4 0 9 0 -1
5 0 0 0 -5
5 0 1 1 1
5 0 1 0 -5
5 0 2 1 5
5 0 2 2 3
5 0 2 0 -5
5 0 3 3 2
5 0 3 0 -3
5 0 3 2 1
5 0 3 1 1
5 0 4 2 -4
5 0 4 1 -5
5 0 4 0 4
5 0 4 4 -3
5 0 4 3 1
5 0 5 1 3
5 0 5 3 -5
5 0 5 4 3
5 0 5 5 -3
5 0 5 2 -5
5 0 6 2 -4
5 0 6 3 -5
5 0 6 1 -3
5 0 6 4 -3
5 0 6 6 -5
5 0 6 0 1
5 0 7 6 -5
5 0 7 3 5
5 0 7 5 1
5 0 7 7 1
5 0 7 4 1
5 0 7 2 -5
5 0 7 1 3
5 0 7 0 4
5 0 8 4 5
5 0 8 1 -1
5 0 8 0 -4
5 0 8 2 -4
5 0 8 5 4
5 0 8 8 1
5 0 8 3 1
5 0 8 7 -2
5 0 9 2 -3
5 0 9 6 1
5 0 9 7 5
5 0 9 0 -2
5 0 9 8 -1
5 0 9 9 1
5 0 9 5 -4
5 0 9 3 -3
5 0 9 1 4
5 0 9 4 4
6 0 0 0 3
6 0 1 0 2
6 0 1 1 3
6 0 2 1 -3
6 0 2 2 4
6 0 2 0 -3
6 0 3 3 5
6 0 3 0 -5
6 0 3 2 5
6 0 3 1 2
6 0 4 2 -5
6 0 4 0 -1
6 0 4 4 5
6 0 4 3 2
6 0 5 0 1
6 0 5 3 -1
6 0 5 1 5
6 0 5 4 -1
6 0 5 2 -3
6 0 6 2 1
6 0 6 5 -5
6 0 6 6 -4
6 0 6 1 -3
6 0 6 4 5
6 0 6 0 -3
6 0 7 3 1
6 0 7 6 -2
6 0 7 5 5
6 0 7 7 -2
6 0 7 0 3
6 0 7 2 5
6 0 7 4 -4
6 0 7 1 -5
6 0 8 1 3
6 0 8 4 -4
6 0 8 0 -5
6 0 8 5 4
6 0 8 2 5
6 0 8 8 4
6 0 8 3 1
6 0 8 6 -4
6 0 8 7 5
6 0 9 0 -3
6 0 9 7 1
6 0 9 6 3
6 0 9 8 4
6 0 9 9 4
6 0 9 2 1
6 0 9 3 5
6 0 9 5 -5
6 0 9 1 3
6 0 9 4 -4
7 0 1 0 1
7 0 1 1 -2
7 0 2 0 3
7 0 2 2 5
7 0 2 1 4
7 0 3 3 1
7 0 3 2 -5
7 0 3 1 1
7 0 3 0 -2
7 0 4 2 5
7 0 4 4 4
7 0 4 1 -3
7 0 4 3 -2
7 0 5 4 -2
7 0 5 5 -1
7 0 5 3 1
7 0 5 2 -1
7 0 5 0 1
7 0 5 1 3
7 0 6 5 -2
7 0 6 0 -5
7 0 6 4 2
7 0 6 2 5
7 0 6 1 1
7 0 6 6 2
7 0 6 3 3
7 0 7 3 4
7 0 7 5 1
7 0 7 1 -5
7 0 7 6 -3
7 0 7 7 3
7 0 7 4 -1
7 0 7 0 1
7 0 7 2 1
7 0 8 2 4
7 0 8 0 -1
7 0 8 4 -1
7 0 8 5 -1
7 0 8 8 2
7 0 8 7 4
7 0 8 3 3
7 0 8 6 -1
7 0 8 1 -1
7 0 9 6 -2
7 0 9 7 4
7 0 9 3 2
7 0 9 8 -3
7 0 9 9 -3
7 0 9 5 5
7 0 9 1 2
7 0 9 2 1
7 0 9 4 -1
7 0 9 0 3
8 0 0 0 4
8 0 1 1 -5
8 0 2 0 3
8 0 2 1 -1
8 0 2 2 -4
8 0 3 0 1
8 0 3 1 -5
8 0 3 3 -3
8 0 4 3 -4
8 0 4 2 -2
8 0 4 0 3
8 0 4 1 5
8 0 4 4 4
8 0 5 3 -3
8 0 5 1 -4
8 0 5 2 -3
8 0 5 4 -1
8 0 6 4 1
8 0 6 2 1
8 0 6 6 -4
8 0 6 1 3
8 0 6 5 -4
8 0 6 0 3
8 0 7 3 3
8 0 7 5 1
8 0 7 1 4
8 0 7 6 3
8 0 7 7 3
8 0 7 4 -3
8 0 7 2 -2
8 0 7 0 1
8 0 8 4 -4
8 0 8 1 2
8 0 8 2 5
8 0 8 3 -3
8 0 8 6 -3
8 0 8 8 4
8 0 8 7 -5
8 0 9 7 -2
8 0 9 8 4
8 0 9 0 -2
8 0 9 2 5
8 0 9 3 -3
8 0 9 1 1
8 0 9 5 2
9 0 0 0 4
9 0 1 0 5
9 0 1 1 3
9 0 2 0 4
9 0 2 1 3
9 0 2 2 5
9 0 3 3 1
9 0 3 0 4
9 0 3 1 -3
9 0 3 2 -2
9 0 4 2 -4
9 0 4 0 -4
9 0 4 1 -3
9 0 4 4 -5
9 0 5 0 2
9 0 5 3 -4
9 0 5 5 -1
9 0 5 1 1
9 0 5 2 4
9 0 5 4 -1
9 0 6 5 1
9 0 6 4 4
9 0 6 1 -2
9 0 6 3 -2
9 0 6 6 -3
9 0 6 0 2
9 0 7 5 5
9 0 7 3 -5
9 0 7 6 3
9 0 7 0 1
9 0 7 4 2
9 0 7 2 5
9 0 7 1 3
9 0 8 1 -1
9 0 8 4 2
9 0 8 2 2
9 0 8 5 -3
9 0 8 0 3
9 0 8 8 -2
9 0 8 3 -4
9 0 8 7 -3
9 0 9 7 3
9 0 9 6 -5
9 0 9 8 -5
9 0 9 9 1
9 0 9 3 3
9 0 9 2 5
9 0 9 5 -3
9 0 9 0 -5
9 0 9 1 3
9 0 9 4 -3

BCOORD
7
2 1
3 1
4 2
5 3
6 2
7 1
8 1

